NAME : portcgen-29-19
COMMENT : portcgen N=29, seed=19
TYPE : TSP
DIMENSION : 29
EDGE_WEIGHT_TYPE : EUC_2D
NODE_COORD_SECTION
1 -43720 -149992
2 -163738 46868
3 46121 306074
4 -262135 118972
5 -189435 -61130
6 18929 -69665
7 324958 -49665
8 401385 71213
9 4859 -77127
10 160098 116330
11 -367754 164694
12 -166269 47977
13 -29821 -443008
14 -134107 134359
15 -236612 -2845
16 101643 20718
17 -118756 -219537
18 -176474 32044
19 198001 289622
20 -450800 -4302
21 87359 -117163
22 -499057 -182933
23 129634 46444
24 361277 624750
25 -89501 -142671
26 -206844 -69981
27 29411 -155903
28 492813 -348196
29 146007 107895
